p cnf 107 3
10786 10512 1953 3808 9470 11219 690 3518 6612 6125 7623 2483 7760 4147 6346 2802 7283 11229 3284 7184 10155 458 10630 11155 9549 8950 7710 4200 4504 8465 10291 3954 6265 1764 7430 10255 
9925 8161 1875 8025 9836 11316 3454 10844 6633 10070 6788 1816 3814 9297 5336 9073 6060 2582 1715 7599 7829 7094 3121 7348 11111 6391 1064 10501 1031 450 1023 8368 9656 339 9224 9754 
1419 10249 9336 3381 6516 6980 3009 8105 10772 9815 7565 2183 5147 5572 7321 9863 10280 457 5838 4222 2863 10865 10264 10277 2414 5922 2447 9255 8738 9252 3196 6704 635 2764 325 

